p edge 29 87
e 1 3
e 1 5
e 1 6
e 1 7
e 1 8
e 1 9
e 1 14
e 1 19
e 1 20
e 1 22
e 1 23
e 1 24
e 2 4
e 2 7
e 2 8
e 2 11
e 2 13
e 2 15
e 2 16
e 2 17
e 3 4
e 3 5
e 3 6
e 3 9
e 3 13
e 3 14
e 3 19
e 3 21
e 3 24
e 3 26
e 4 5
e 4 7
e 4 10
e 4 11
e 4 12
e 4 13
e 4 17
e 4 19
e 4 26
e 5 7
e 5 8
e 5 10
e 5 11
e 5 12
e 5 14
e 5 17
e 5 19
e 5 23
e 5 26
e 5 29
e 6 9
e 6 15
e 6 16
e 6 20
e 6 24
e 7 14
e 7 15
e 7 17
e 7 23
e 8 9
e 8 11
e 8 16
e 8 19
e 8 22
e 8 29
e 9 11
e 9 14
e 10 11
e 10 12
e 10 17
e 11 12
e 11 17
e 12 17
e 12 18
e 13 14
e 13 21
e 13 27
e 14 21
e 14 23
e 15 17
e 16 18
e 17 20
e 18 25
e 19 22
e 19 26
e 20 24
e 24 28
